p cnf 12 23
-12 11 2 0
-12 -10 9 0
12 8 -7 0
-12 -8 -6 0
-12 -8 2 0
-12 7 5 0
12 6 4 0
11 10 -9 0
-11 10 6 0
-11 -8 -1 0
11 7 -6 0
-11 2 -1 0
10 -9 5 0
10 9 2 0
-10 4 -3 0
9 8 7 0
8 -7 -1 0
-8 -6 2 0
8 -5 -4 0
8 -5 4 0
7 6 5 0
-6 -4 -1 0
-5 3 2 0
